
  17    4
  10   10   10   10

   0   0   0   0   0   4 2 3 5 9 
   5  10  10  10  10   3 11 8 6 
   1  10  10  10  10   2 10 4 
   3  10  10  10  10   3 15 11 7 
   2  10  10  10  10   3 13 11 10 
   1  10  10  10  10   3 16 13 10 
   7  10  10  10  10   4 16 14 13 12 
   9  10  10  10  10   4 16 14 13 12 
   6  10  10  10  10   4 15 14 13 12 
   1  10  10  10  10   2 15 12 
   5  10  10  10  10   2 14 12 
   7  10  10  10  10   1 17
   4  10  10  10  10   1 17
   9  10  10  10  10   1 17
   6  10  10  10  10   1 17
  10  10  10  10  10   1 17
   0   0   0   0   0   0 
